<number of tasks>
20

<cycle time>
1000

<order strength>
0,189


<task times>
1 317
2 444
3 234
4 466
5 617
6 433
7 85
8 249
9 196
10 395
11 370
12 122
13 153
14 165
15 306
16 99
17 185
18 286
19 106
20 173

<precedence relations>
1,8
2,7
2,10
3,9
7,11
8,12
11,14
12,13
12,15
12,16
13,17
14,19
15,18
16,20

<end>
